
Note: the module "julia" cannot be unloaded because it was not loaded.

2023/11/29
gurobi is now 11.0.0
previous version was 10.0.2
solving instance uflp nldep gunluk ../../../../../instances/uflp/gunluk/gunluk-20-40-5.txt sinabc2
The latest version of Julia in the `1.10` channel is 1.10.6+0.x64.linux.gnu. You currently have `1.10.5+0.x64.linux.gnu` installed. Run:

  juliaup update

in your terminal shell to install Julia 1.10.6+0.x64.linux.gnu and update the `1.10` channel to that version.
presolving:
(round 1, fast)       20 del vars, 800 del conss, 0 add conss, 20 chg bounds, 0 chg sides, 0 chg coeffs, 0 upgd conss, 0 impls, 0 clqs
   (0.0s) symmetry computation started: requiring (bin +, int +, cont +), (fixed: bin -, int -, cont -)
   (0.0s) no symmetry present (symcode time: 0.00)
presolving (2 rounds: 2 fast, 1 medium, 1 exhaustive):
 20 deleted vars, 800 deleted constraints, 0 added constraints, 20 tightened bounds, 0 added holes, 0 changed sides, 0 changed coefficients
 0 implications, 0 cliques
presolved problem has 840 variables (0 bin, 0 int, 0 impl, 840 cont) and 80 constraints
     60 constraints of type <linear>
     20 constraints of type <nonlinear>
Presolving Time: 0.01

 time | node  | left  |LP iter|LP it/n|mem/heur|mdpt |vars |cons |rows |cuts |sepa|confs|strbr|  dualbound   | primalbound  |  gap   | compl. 
  0.0s|     1 |     0 |   152 |     - |  7556k |   0 | 900 |  80 | 260 |   0 |  0 |   0 |   0 | 2.190773e+02 |      --      |    Inf | unknown
L 0.0s|     1 |     0 |   152 |     - |undercov|   0 | 900 |  80 | 260 |   0 |  0 |   0 |   0 | 2.190773e+02 | 2.360797e+02 |   7.76%| unknown
L 0.2s|     1 |     0 |   152 |     - |undercov|   0 | 900 |  80 | 260 |   0 |  0 |   0 |   0 | 2.190773e+02 | 2.345719e+02 |   7.07%| unknown
  0.3s|     1 |     0 |   172 |     - |  7958k |   0 | 900 |  80 | 274 |  14 |  1 |   0 |   0 | 2.200256e+02 | 2.345719e+02 |   6.61%| unknown
  0.3s|     1 |     0 |   172 |     - |  7958k |   0 | 900 |  80 | 274 |  14 |  1 |   0 |   0 | 2.200256e+02 | 2.345719e+02 |   6.61%| unknown
  0.3s|     1 |     0 |   177 |     - |  7958k |   0 | 900 |  80 | 279 |  19 |  2 |   0 |   0 | 2.201090e+02 | 2.345719e+02 |   6.57%| unknown
  0.3s|     1 |     0 |   849 |     - |  8508k |   0 | 900 |  80 | 279 |  19 |  3 |   0 |   0 | 2.226076e+02 | 2.345719e+02 |   5.37%| unknown
  0.3s|     1 |     0 |   884 |     - |  8508k |   0 | 900 |  80 | 297 |  37 |  4 |   0 |   0 | 2.327875e+02 | 2.345719e+02 |   0.77%| unknown
  0.3s|     1 |     0 |   898 |     - |  8508k |   0 | 900 |  80 | 311 |  51 |  5 |   0 |   0 | 2.332200e+02 | 2.345719e+02 |   0.58%| unknown
  0.3s|     1 |     0 |   902 |     - |  8508k |   0 | 900 |  80 | 314 |  54 |  6 |   0 |   0 | 2.332570e+02 | 2.345719e+02 |   0.56%| unknown
  0.3s|     1 |     0 |   904 |     - |  8508k |   0 | 900 |  80 | 316 |  56 |  7 |   0 |   0 | 2.332799e+02 | 2.345719e+02 |   0.55%| unknown
  0.3s|     1 |     0 |   905 |     - |  8508k |   0 | 900 |  80 | 318 |  58 |  8 |   0 |   0 | 2.332848e+02 | 2.345719e+02 |   0.55%| unknown
  0.3s|     1 |     0 |   907 |     - |  8508k |   0 | 900 |  80 | 319 |  59 |  9 |   0 |   0 | 2.332866e+02 | 2.345719e+02 |   0.55%| unknown
  0.3s|     1 |     0 |   908 |     - |  8516k |   0 | 900 |  80 | 194 |  61 | 10 |   0 |   0 | 2.332870e+02 | 2.345719e+02 |   0.55%| unknown
  0.3s|     1 |     0 |   909 |     - |  8516k |   0 | 900 |  80 | 195 |  62 | 11 |   0 |   0 | 2.332872e+02 | 2.345719e+02 |   0.55%| unknown
 time | node  | left  |LP iter|LP it/n|mem/heur|mdpt |vars |cons |rows |cuts |sepa|confs|strbr|  dualbound   | primalbound  |  gap   | compl. 
L 0.4s|     1 |     0 |   909 |     - |  subnlp|   0 | 900 |  80 | 195 |  62 | 12 |   0 |   0 | 2.332872e+02 | 2.345719e+02 |   0.55%| unknown
  0.4s|     1 |     0 |   909 |     - |  8516k |   0 | 900 |  80 | 195 |  62 | 12 |   0 |   0 | 2.332872e+02 | 2.345719e+02 |   0.55%| unknown
  0.4s|     1 |     2 |   909 |     - |  8555k |   0 | 900 |  80 | 195 |  62 | 13 |   0 |   0 | 2.332872e+02 | 2.345719e+02 |   0.55%| unknown
  0.9s|   100 |    61 |  1321 |  10.8 |  9437k |   9 | 900 |  80 | 153 | 282 |  0 |   0 |   0 | 2.340248e+02 | 2.345719e+02 |   0.23%|  49.99%
  0.9s|   200 |    67 |  1557 |   6.5 |  9610k |  15 | 900 |  80 | 161 | 394 |  2 |   0 |   0 | 2.343319e+02 | 2.345719e+02 |   0.10%|  70.84%
  1.0s|   300 |    49 |  1764 |   5.0 |  9613k |  18 | 900 |  80 | 176 | 489 |  2 |   0 |   0 | 2.344630e+02 | 2.345719e+02 |   0.05%|  85.81%
  1.1s|   400 |    65 |  1989 |   4.3 |  9854k |  25 | 900 |  80 | 158 | 612 |  1 |   0 |   0 | 2.345104e+02 | 2.345719e+02 |   0.03%|  92.30%
  1.3s|   500 |    81 |  2152 |   3.8 |    10M |  28 | 900 |  80 | 179 | 694 |  2 |   0 |   0 | 2.345278e+02 | 2.345719e+02 |   0.02%|  94.70%
  1.3s|   600 |    77 |  2346 |   3.5 |    10M |  32 | 900 |  80 | 184 | 778 |  2 |   0 |   0 | 2.345351e+02 | 2.345719e+02 |   0.02%|  95.21%
  1.4s|   700 |    99 |  2497 |   3.2 |    10M |  37 | 900 |  80 | 183 | 860 |  2 |   0 |   0 | 2.345375e+02 | 2.345719e+02 |   0.01%|  96.45%
  1.5s|   800 |   105 |  2685 |   3.0 |    10M |  41 | 900 |  80 | 199 | 943 |  2 |   0 |   0 | 2.345435e+02 | 2.345719e+02 |   0.01%|  98.22%
  1.6s|   900 |   117 |  2864 |   2.9 |    10M |  43 | 900 |  80 | 212 |1014 |  2 |   0 |   0 | 2.345461e+02 | 2.345719e+02 |   0.01%|  98.57%
  1.7s|  1000 |   125 |  3052 |   2.8 |    10M |  43 | 900 |  80 | 205 |1097 |  0 |   0 |   0 | 2.345471e+02 | 2.345719e+02 |   0.01%|  98.88%
  1.7s|  1100 |   121 |  3219 |   2.7 |    10M |  45 | 900 |  80 | 203 |1165 |  1 |   0 |   0 | 2.345471e+02 | 2.345719e+02 |   0.01%|  98.88%
  1.8s|  1200 |   113 |  3385 |   2.6 |    10M |  48 | 900 |  80 | 214 |1226 |  0 |   0 |   0 | 2.345520e+02 | 2.345719e+02 |   0.01%|  99.00%
 time | node  | left  |LP iter|LP it/n|mem/heur|mdpt |vars |cons |rows |cuts |sepa|confs|strbr|  dualbound   | primalbound  |  gap   | compl. 
  1.9s|  1300 |    97 |  3566 |   2.5 |    10M |  52 | 900 |  80 | 211 |1299 |  0 |   0 |   0 | 2.345578e+02 | 2.345719e+02 |   0.01%|  99.64%
  2.0s|  1400 |    67 |  3764 |   2.5 |    10M |  55 | 900 |  80 | 225 |1386 |  4 |   0 |   0 | 2.345592e+02 | 2.345719e+02 |   0.01%|  99.68%
  2.1s|  1500 |    57 |  3943 |   2.5 |    10M |  59 | 900 |  80 | 234 |1478 |  1 |   0 |   0 | 2.345598e+02 | 2.345719e+02 |   0.01%|  99.69%

SCIP Status        : problem is solved [optimal solution found]
Solving Time (sec) : 2.12
Solving Nodes      : 1557
Primal Bound       : +2.34571857255407e+02 (5 solutions)
Dual Bound         : +2.34571857255407e+02
Gap                : 0.00 %
Generating Gunluk and Lee data file ../../../../../instances/uflp/gunluk/gunluk-20-40-5.txt
primal_bound = 234.5718572554065, dual_bound = 234.5718572554065, gap = 0.0, time = 4.53
